Route #1: 26 7 35 8 52 34 46
Route #2: 27 45 29 5 48 30
Route #3: 21 47 36 60 20 37 15 57
Route #4: 13 54 19 59 14 53
Route #5: 11 38 10 58 12
Route #6: 40 9 32 44 3
Route #7: 39 31 55 25 50 18 24 49
Route #8: 23 56 41 64 42 43 1
Route #9: 2 62 22 61 28 4
Route #10: 6 33 63 16 51 17
Cost 819